39 23 67 55 25 
95 98 16 86 91 100 
28 29 78 34 35 77 
31 88 7 
65 71 9 20 32 70 
82 8 46 17 
33 81 3 54 24 80 
36 47 19 10 
21 73 26 
12 76 79 68 
45 83 84 60 89 
14 44 38 43 13 
40 53 
5 61 85 37 93 
63 64 49 48 
92 42 15 41 56 4 
2 87 57 97 
52 18 6 
62 11 90 66 1 
59 99 94 96 
72 75 22 74 58 
27 69 30 51 50 
